SPARKNaCl/why3-z3/sparknacl-hkdf.ads_22_24_range_check_1.smt2
;; produced by z3_gnatprove.drv ;;
(set-info :smt-lib-version 2.5)
(set-info :source |VC generated by SPARK 2014|)
(set-info :category industrial)
(set-info :status unknown)
;;; generated by SMT-LIB2 driver
;;; SMT-LIB2 driver: bit-vectors, common part
;;; SMT-LIB2: integer arithmetic
;; "uint_in_range"
(define-fun uint_in_range ((i Int)) Bool
  (and (<= 0 i) (<= i 4294967295)))

(declare-sort byte 0)

;; "to_rep"
(declare-fun to_rep (byte) (_ BitVec 8))

;; "of_rep"
(declare-fun of_rep ((_ BitVec 8)) byte)

;; "inversion_axiom"
(assert
  (forall ((x byte)) (! (= (of_rep (to_rep x)) x) :pattern ((to_rep x)) )))

;; "range_axiom"
(assert true)

;; "coerce_axiom"
(assert
  (forall ((x (_ BitVec 8)))
    (! (= (to_rep (of_rep x)) x) :pattern ((to_rep (of_rep x))) )))

(declare-sort map1 0)

(declare-datatypes ()
  ((map__ref (map__refqtmk (map__content map1)))))

;; "has_bounds"
(declare-fun has_bounds (map1
  Int
  Int) Bool)

(declare-sort tinteger_32B 0)

;; "tinteger_32B'int"
(declare-fun tinteger_32Bqtint (tinteger_32B) Int)

;; "tinteger_32B'axiom"
(assert
  (forall ((i tinteger_32B))
    (and
      (<= (- 2147483648) (tinteger_32Bqtint i))
      (<= (tinteger_32Bqtint i) 2147483647))))

;; "in_range"
(define-fun in_range ((x Int)) Bool
  (and (<= (- 2147483648) x) (<= x 2147483647)))

;; "to_rep"
(define-fun to_rep1 ((x tinteger_32B)) Int
  (tinteger_32Bqtint x))

;; "of_rep"
(declare-fun of_rep1 (Int) tinteger_32B)

;; "inversion_axiom"
(assert
  (forall ((x tinteger_32B))
    (! (= (of_rep1 (to_rep1 x)) x) :pattern ((to_rep1 x)) )))

;; "range_axiom"
(assert
  (forall ((x tinteger_32B))
    (! (in_range (to_rep1 x)) :pattern ((to_rep1 x)) )))

;; "coerce_axiom"
(assert
  (forall ((x Int))
    (! (=> (in_range x) (= (to_rep1 (of_rep1 x)) x)) :pattern ((to_rep1
                                                                 (of_rep1 x))) )))

;; "in_range"
(define-fun in_range1 ((x Int)) Bool
  (and (<= 0 x) (<= x 2147483647)))

(declare-datatypes ()
  ((t (tqtmk (rec__first tinteger_32B)(rec__last tinteger_32B)))))

;; "dynamic_property"
(define-fun dynamic_property ((range_first Int) (range_last Int) (low Int) (high Int)) Bool
  (and
    (in_range low)
    (and
      (in_range high)
      (=> (<= low high) (and (in_range1 low) (in_range1 high))))))

(declare-datatypes ()
  ((us_t (us_tqtmk (elts map1)(rt t)))))

;; "first"
(define-fun first ((a us_t)) Int
  (to_rep1 (rec__first (rt a))))

;; "last"
(define-fun last ((a us_t)) Int
  (to_rep1 (rec__last (rt a))))

;; "length"
(define-fun length ((a us_t)) Int
  (ite (<= (first a) (last a)) (+ (- (last a) (first a)) 1) 0))

;; "well_formed"
(define-fun well_formed ((a us_t)) Bool
  (has_bounds
    (elts a)
    (to_rep1 (rec__first (rt a)))
    (to_rep1 (rec__last (rt a)))))

(declare-const ikm us_t)

(declare-const salt us_t)

;; "dynamic_invariant"
(define-fun dynamic_invariant ((temp___expr_244 us_t) (temp___is_init_240 Bool) (temp___skip_constant_241 Bool) (temp___do_toplevel_242 Bool) (temp___do_typ_inv_243 Bool)) Bool
  (and
    (=>
      (not (= temp___skip_constant_241 true))
      (dynamic_property
        0
        2147483647
        (first temp___expr_244)
        (last temp___expr_244)))
    (well_formed temp___expr_244)))

(declare-const prk map1)

;; "prk'unused"
(define-fun prkqtunused () map__ref
  (map__refqtmk prk))

;; "Assume"
(assert (has_bounds prk 0 31))

;; "Assume"
(assert (dynamic_invariant ikm true false true true))

;; "Assume"
(assert (dynamic_invariant salt true false true true))

(declare-const o Bool)

(declare-const o1 Int)

;; "H"
(assert (= o1 (length salt)))

(declare-const lengthqtresultqtunused Int)

;; "H"
(assert (= lengthqtresultqtunused o1))

(declare-const infix_gtqtresultqtunused Bool)

;; "H"
(assert (= infix_gtqtresultqtunused (ite (< 0 o1) true false)))

(declare-const o2 Int)

(declare-const firstqtresultqtunused Int)

(declare-const infix_eqqtresultqtunused Bool)

;; "H"
(assert
  (ite (< 0 o1)
    (and
      (= o2 (first salt))
      (and
        (= firstqtresultqtunused o2)
        (and (= o (ite (= o2 0) true false)) (= infix_eqqtresultqtunused o))))
    (= o true)))

;; "o"
(define-fun o3 () Int
  (length ikm))

;; "length'result'unused"
(define-fun lengthqtresultqtunused1 () Int
  o3)

;; Goal "def'vc"
;; File "sparknacl-hkdf.ads", line 15, characters 0-0
(assert
  (not (uint_in_range o3)))

(check-sat)
